NAME : random29.437.tour
COMMENT : Length = 437
COMMENT : Found by LKH [Keld Helsgaun] Sat Nov 23 15:56:42 2024
TYPE : TOUR
DIMENSION : 29
TOUR_SECTION
1
15
14
5
10
24
12
4
21
19
13
17
3
27
29
9
6
25
22
23
11
2
18
16
7
20
8
26
28
-1
EOF
